(set-logic QF_S)
(declare-fun var0 () String)
(assert (str.in.re var0 (re.++ (re.union (re.+ (str.to.re "00")) (re.+ (str.to.re "1"))) (re.++ (re.* (re.+ (str.to.re "22"))) (re.++ (re.union (re.+ (str.to.re "3")) (re.+ (str.to.re "4"))) (re.++ (re.union (re.union (str.to.re "555") (str.to.re "666")) (re.union (str.to.re "77") (str.to.re "8"))) (re.++ (re.+ (re.union (str.to.re "999") (str.to.re "aa"))) (re.++ (re.* (re.* (str.to.re "bb"))) (re.++ (re.* (re.+ (str.to.re "ccc"))) (re.++ (re.union (re.union (str.to.re "ddd") (str.to.re "eee")) (re.+ (str.to.re "fff"))) (re.+ (re.* (str.to.re "g")))))))))))))
(check-sat)